solution status: optimal solution found
objective value:                      140365.81539068
d11(0,0)                                            1 	(obj:0)
d11(1,1)                                            1 	(obj:0)
d11(2,3)                                            1 	(obj:0)
d11(2,4)                                            1 	(obj:0)
d11(2,5)                                            1 	(obj:0)
d11(3,7)                                            1 	(obj:0)
d11(3,8)                                            1 	(obj:0)
d11(3,9)                                            1 	(obj:0)
d11(3,10)                                           1 	(obj:0)
d11(3,11)                                           1 	(obj:0)
d11(3,13)                                           1 	(obj:0)
d11(3,14)                                           1 	(obj:0)
d11(4,15)                                           1 	(obj:0)
d11(4,17)                                           1 	(obj:0)
d11(4,19)                                           1 	(obj:0)
d11(4,21)                                           1 	(obj:0)
d11(4,23)                                           1 	(obj:0)
d11(4,27)                                           1 	(obj:0)
d11(4,29)                                           1 	(obj:0)
d12(1,2)                                            1 	(obj:0)
d12(4,16)                                           1 	(obj:0)
d12(4,18)                                           1 	(obj:0)
d12(4,20)                                           1 	(obj:0)
d12(4,22)                                           1 	(obj:0)
d12(4,24)                                           1 	(obj:0)
d12(4,26)                                           1 	(obj:0)
d12(4,28)                                           1 	(obj:0)
d12(4,30)                                           1 	(obj:0)
d21(2,3)                                            1 	(obj:0)
d21(3,7)                                            1 	(obj:0)
d21(3,8)                                            1 	(obj:0)
d21(3,9)                                            1 	(obj:0)
d21(3,11)                                           1 	(obj:0)
d21(4,15)                                           1 	(obj:0)
d21(4,16)                                           1 	(obj:0)
d21(4,17)                                           1 	(obj:0)
d21(4,18)                                           1 	(obj:0)
d21(4,19)                                           1 	(obj:0)
d21(4,20)                                           1 	(obj:0)
d21(4,23)                                           1 	(obj:0)
d21(4,24)                                           1 	(obj:0)
y2(4,16)                             1385.48851144901 	(obj:0)
y2(4,18)                             1385.48851144895 	(obj:0)
y2(4,20)                             1385.48851144895 	(obj:0)
y2(4,22)                             1385.48851144901 	(obj:0)
y2(4,24)                             1385.48851144895 	(obj:0)
y2(4,26)                             1385.48851144901 	(obj:0)
y2(4,28)                             1385.48851144895 	(obj:0)
y2(4,30)                             1385.48851144901 	(obj:0)
STE(1,1)                             6921.40763301448 	(obj:0)
STE(0,0)                                         7875 	(obj:0)
STE(1,2)                             8273.24989888864 	(obj:0)
STE(2,3)                             4633.15773412563 	(obj:0)
STE(2,4)                             6291.40763301445 	(obj:0)
STE(2,5)                             5984.99999999979 	(obj:0)
STE(2,6)                             7643.24989888864 	(obj:0)
STE(3,7)                             2344.90783523681 	(obj:0)
STE(3,8)                             4003.15773412563 	(obj:0)
STE(3,9)                             4003.15773412563 	(obj:0)
STE(3,10)                            5661.40763301445 	(obj:0)
STE(3,11)                            3696.75010111097 	(obj:0)
STE(3,12)                            5354.99999999979 	(obj:0)
STE(3,13)                            5354.99999999982 	(obj:0)
STE(3,14)                            7013.24989888864 	(obj:0)
STE(4,15)                            1714.90783523681 	(obj:0)
STE(4,16)                            3031.12192111337 	(obj:0)
STE(4,17)                            3373.15773412563 	(obj:0)
STE(4,18)                            4689.37182000214 	(obj:0)
STE(4,19)                            3373.15773412557 	(obj:0)
STE(4,20)                            4689.37182000214 	(obj:0)
STE(4,21)                            5031.40763301445 	(obj:0)
STE(4,22)                            6347.62171889101 	(obj:0)
STE(4,23)                            3066.75010111097 	(obj:0)
STE(4,24)                            4382.96418698748 	(obj:0)
STE(4,25)                            4724.99999999979 	(obj:0)
STE(4,26)                            6041.21408587635 	(obj:0)
STE(4,27)                                        4725 	(obj:0)
STE(4,28)                            6041.21408587633 	(obj:0)
STE(4,29)                            6383.24989888864 	(obj:0)
STE(4,30)                             7699.4639847652 	(obj:0)
y1(3,11)                             1492.42490899994 	(obj:0)
y1(3,13)                             1492.42490899994 	(obj:0)
WB(1)                                295.330365578237 	(obj:0)
AVE(1)                               3265.91696791192 	(obj:0)
AVE(2)                               3332.74178563731 	(obj:0)
AVE(3)                               3444.11697932125 	(obj:0)
WB(4)                                3399.56511093612 	(obj:0)
AVE(4)                               3399.56511093778 	(obj:0)
WG(1)                                2970.58660233368 	(obj:10)
WG(2)                                3332.74178563731 	(obj:10)
WG(3)                                3444.11697932115 	(obj:10)
WG(4)                            1.66307602609907e-009 	(obj:10)
BG(2)                                863.550713342281 	(obj:10)
BG(3)                                752.175519658414 	(obj:10)
BG(4)                                2673.40993877385 	(obj:10)
y1(1,1)                              291.233130286971 	(obj:0)
y1(2,3)                              1492.42490899996 	(obj:0)
y1(2,5)                              1492.42490899996 	(obj:0)
y1(3,7)                              1492.42490899994 	(obj:0)
y1(3,9)                              1492.42490899994 	(obj:0)
y2(1,2)                              1082.36831461962 	(obj:0)
